NAME : Game 1038
COMMENT : Dots
TYPE : TSP
DIMENSION : 21
EDGE_WEIGHT_TYPE : EUC_2D
NODE_COORD_SECTION
1 10 36
2 13 57
3 15 75
4 26 75
5 27 45
6 33 24
7 35 89
8 44 71
9 46 31
10 47 13
11 48 44
12 55 78
13 56 18
14 69 45
15 70 28
16 75 89
17 76 12
18 79 60
19 81 77
20 87 52
21 88 32
EOF